Version identifier: 22.1.1.0 | 2022-11-28 | 9160aff4d
CPXPARAM_ClockType                               1
CPXPARAM_Read_DataCheck                          1
CPXPARAM_Threads                                 1
CPXPARAM_TimeLimit                               7200
CPXPARAM_MIP_Tolerances_AbsMIPGap                0
CPXPARAM_MIP_Tolerances_MIPGap                   0
CPXPARAM_MIP_Tolerances_Integrality              0
Tried aggregator 2 times.
MIP Presolve eliminated 926469 rows and 34770 columns.
MIP Presolve modified 17224 coefficients.
Aggregator did 3464 substitutions.
Reduced MIP has 15752 rows, 17320 columns, and 82702 nonzeros.
Reduced MIP has 17320 binaries, 0 generals, 0 SOSs, and 0 indicators.
Presolve time = 1.47 sec. (899.32 ticks)
Probing time = 0.02 sec. (9.12 ticks)
Tried aggregator 1 time.
Detecting symmetries...
MIP Presolve eliminated 10 rows and 0 columns.
MIP Presolve modified 320 coefficients.
Reduced MIP has 15742 rows, 17320 columns, and 82212 nonzeros.
Reduced MIP has 17320 binaries, 0 generals, 0 SOSs, and 0 indicators.
Presolve time = 0.10 sec. (68.99 ticks)
Probing time = 0.02 sec. (8.76 ticks)
Clique table members: 50627.
MIP emphasis: balance optimality and feasibility.
MIP search method: dynamic search.
Parallel mode: none, using 1 thread.
Root relaxation solution time = 87.42 sec. (73105.52 ticks)

        Nodes                                         Cuts/
   Node  Left     Objective  IInf  Best Integer    Best Bound    ItCnt     Gap

      0     0     3893.6667  3637                   3893.6667    60534         
      0     0     3885.2143  3479                   Cuts: 336   115422         
      0     0     3882.0000  3734                   Cuts: 462   174195         
      0     0     3882.0000  3620                   Cuts: 406   392782         
      0     0     3882.0000  3639                   Cuts: 356   611449         
      0     0     3882.0000  3495                    Cuts: 35   665554         
      0     0     3882.0000  3666                   Cuts: 372   719234         
Heuristic still looking.
Heuristic still looking.
Heuristic still looking.
*     0+    0                            0.0000     3882.0000              --- 
      0     2     3882.0000  3119        0.0000     3882.0000   719234     --- 
Elapsed time = 1690.64 sec. (1369093.32 ticks, tree = 0.01 MB, solutions = 1)
      1     3     3882.0000  3404        0.0000     3882.0000   825131     --- 
      2     4     3882.0000  3476        0.0000     3882.0000   873692     --- 
      3     5     3882.0000  3533        0.0000     3882.0000   924165     --- 
      4     6     3882.0000  3486        0.0000     3882.0000   975246     --- 
      5     7     3882.0000  3524        0.0000     3882.0000   976634     --- 
      6     8     3882.0000  3877        0.0000     3882.0000   979899     --- 
      7     9     3882.0000  3442        0.0000     3882.0000  1061178     --- 
      8    10     3882.0000  3527        0.0000     3882.0000  1061946     --- 
      9    11     3882.0000  3420        0.0000     3882.0000  1062205     --- 
     11    13     3882.0000  3512        0.0000     3882.0000  1064141     --- 
Elapsed time = 2180.63 sec. (1770020.86 ticks, tree = 0.08 MB, solutions = 1)
     12    14     3882.0000  3405        0.0000     3882.0000  1116496     --- 
     13    15     3882.0000  3406        0.0000     3882.0000  1177636     --- 
     15    17     3882.0000  3470        0.0000     3882.0000  1181231     --- 
     17    19     3882.0000  3417        0.0000     3882.0000  1183328     --- 
     18    20     3882.0000  3462        0.0000     3882.0000  1184433     --- 
     20    22     3882.0000  3453        0.0000     3882.0000  1186797     --- 
     22    24     3747.0000  3612        0.0000     3882.0000  2156793     --- 

Clique cuts applied:  238
Implied bound cuts applied:  25
Zero-half cuts applied:  57
Gomory fractional cuts applied:  1

Root node processing (before b&c):
  Real time             = 1690.38 sec. (1368956.44 ticks)
Sequential b&c:
  Real time             = 5510.16 sec. (4413313.33 ticks)
                          ------------
Total (root+branch&cut) = 7200.54 sec. (5782269.76 ticks)
Solution is feasible.

---------------------
@@@ MIP_time_limit_feasible
>>> Benchmark mc2024_track1_153.cnf k 10 OPT 0 TimeCost 8618.025029182434 TimeSolve 7228.699902057648 TimeRead 0.15732288360595703 TimeTrans 1389.1678042411804
